\ Model Routes
\ LP format - for model browsing. Use MPS format to capture full model detail.
Maximize
  - 191.7153353028244 R{0,0} + 623.2046552982704 R{0,1}
   + 623.2046552982704 R{0,2} - 249.2301939667805 R{0,3}
   + 234.7650315204939 R{0,4} + 397.2891588355392 R{0,5}
   + 449.0745601781551 R{0,6} + 337.5875410177762 R{0,7}
   + 462.0834626305261 R{0,8} + 516.4461381934163 R{0,9}
   + 698.1158664126085 R{0,10} - 51.3091917746732 R{0,11}
   + 613.7186626142438 R{0,12} + 486.6829182142316 R{0,13}
   - 256.140831891889 R{1,0} - 58.16416216887956 R{1,1}
   + 669.0062570112706 R{1,2} + 38.50947054297592 R{1,3}
   + 350.7910483359009 R{1,4} + 1269.981959229931 R{1,5}
   + 379.1925452150434 R{1,6} - 72.63034421953006 R{1,7}
   + 558.4112073893498 R{1,8} + 38.50947054297592 R{1,9}
   + 1198.881248318718 R{2,0} + 1198.881248318718 R{2,1}
   - 278.4443928850388 R{2,2} - 59.13410337035452 R{2,3}
   + 602.7748664658451 R{2,4} + 1100.505917706273 R{2,5}
   + 339.6124240820668 R{2,6} + 644.4168851140871 R{2,7}
   + 832.465065802254 R{2,8} + 835.8926674184459 R{2,9}
   + 547.9951927354014 R{2,10} + 457.5043237655609 R{2,11}
   + 755.1238528002053 R{2,12} - 159.347449529336 R{2,13}
   - 260.2482995389823 R{3,0} + 967.7221973521264 R{3,1}
   + 1335.663160618656 R{3,2} + 1696.665877888776 R{3,3}
   + 561.5753609917091 R{3,4} + 987.0870325043811 R{3,5}
   + 602.2035872134138 R{3,6} + 671.0574379179245 R{3,7}
   + 1469.304877960364 R{3,8} + 933.2009294245104 R{3,9}
   + 1388.56648187633 R{3,10} + 907.1004624900652 R{3,11}
   + 860.9974112672598 R{3,12} + 909.2895700176527 R{3,13}
   + 1529.042578629825 R{3,14} - 242.5208875955131 R{4,0}
   + 862.1744748373853 R{4,1} + 1576.196574514046 R{4,2}
   + 1395.394662269676 R{4,3} + 1237.236653229166 R{4,4}
   + 2058.862125983035 R{4,5} + 1210.101990912413 R{4,6}
   + 624.4192619648536 R{4,7} + 1001.930453962672 R{4,8}
   + 600.6269432931975 R{4,9} + 624.4192619648536 R{4,10}
   + 2736.246864868296 R{4,11} - 231.9775664337766 R{5,0}
   + 40.49903117334031 R{5,1} + 364.0546919427258 R{5,2}
   + 332.6617766126478 R{5,3} + 929.294151390538 R{5,4}
   + 720.0012077447068 R{5,5} + 1135.100268151971 R{5,6}
   + 835.4974337669746 R{5,7} + 692.7876092857807 R{5,8}
   - 231.1436095783099 R{6,0} + 33.55355284326401 R{6,1}
   + 1057.663169502638 R{6,2} + 1622.808530245978 R{6,3}
   + 498.4851476632805 R{6,4} + 167.9791572228745 R{6,5}
   + 474.948385496781 R{6,6} + 1166.571199323291 R{6,7}
   + 1849.085858262638 R{6,8} + 1677.257043668375 R{6,9}
   - 72.81712404903399 R{6,10} + 147.3051653630386 R{6,11}
   + 1276.442218403356 R{6,12}
Subject To
 R00: R{0,0} <= 1
 R01: R{0,1} <= 1
 R02: R{0,2} <= 1
 R03: R{0,3} <= 1
 R04: R{0,4} <= 1
 R05: R{0,5} <= 1
 R06: R{0,6} <= 1
 R07: R{0,7} <= 1
 R08: R{0,8} <= 1
 R09: R{0,9} <= 1
 R010: R{0,10} <= 1
 R011: R{0,11} <= 1
 R012: R{0,12} <= 1
 R013: R{0,13} <= 1
 R014: R{1,0} <= 1
 R015: R{1,1} <= 1
 R016: R{1,2} <= 1
 R017: R{1,3} <= 1
 R018: R{1,4} <= 1
 R019: R{1,5} <= 1
 R020: R{1,6} <= 1
 R021: R{1,7} <= 1
 R022: R{1,8} <= 1
 R023: R{1,9} <= 1
 R024: R{2,0} <= 1
 R025: R{2,1} <= 1
 R026: R{2,2} <= 1
 R027: R{2,3} <= 1
 R028: R{2,4} <= 1
 R029: R{2,5} <= 1
 R030: R{2,6} <= 1
 R031: R{2,7} <= 1
 R032: R{2,8} <= 1
 R033: R{2,9} <= 1
 R034: R{2,10} <= 1
 R035: R{2,11} <= 1
 R036: R{2,12} <= 1
 R037: R{2,13} <= 1
 R038: R{3,0} <= 1
 R039: R{3,1} <= 1
 R040: R{3,2} <= 1
 R041: R{3,3} <= 1
 R042: R{3,4} <= 1
 R043: R{3,5} <= 1
 R044: R{3,6} <= 1
 R045: R{3,7} <= 1
 R046: R{3,8} <= 1
 R047: R{3,9} <= 1
 R048: R{3,10} <= 1
 R049: R{3,11} <= 1
 R050: R{3,12} <= 1
 R051: R{3,13} <= 1
 R052: R{3,14} <= 1
 R053: R{4,0} <= 1
 R054: R{4,1} <= 1
 R055: R{4,2} <= 1
 R056: R{4,3} <= 1
 R057: R{4,4} <= 1
 R058: R{4,5} <= 1
 R059: R{4,6} <= 1
 R060: R{4,7} <= 1
 R061: R{4,8} <= 1
 R062: R{4,9} <= 1
 R063: R{4,10} <= 1
 R064: R{4,11} <= 1
 R065: R{5,0} <= 1
 R066: R{5,1} <= 1
 R067: R{5,2} <= 1
 R068: R{5,3} <= 1
 R069: R{5,4} <= 1
 R070: R{5,5} <= 1
 R071: R{5,6} <= 1
 R072: R{5,7} <= 1
 R073: R{5,8} <= 1
 R074: R{6,0} <= 1
 R075: R{6,1} <= 1
 R076: R{6,2} <= 1
 R077: R{6,3} <= 1
 R078: R{6,4} <= 1
 R079: R{6,5} <= 1
 R080: R{6,6} <= 1
 R081: R{6,7} <= 1
 R082: R{6,8} <= 1
 R083: R{6,9} <= 1
 R084: R{6,10} <= 1
 R085: R{6,11} <= 1
 R086: R{6,12} <= 1
 R1_0: R{0,0} + R{0,1} + R{0,2} + R{0,3} + R{0,4} + R{0,5} + R{0,6}
   + R{0,7} + R{0,8} + R{0,9} + R{0,10} + R{0,11} + R{0,12} + R{0,13} <= 1
 R1_1: R{1,0} + R{1,1} + R{1,2} + R{1,3} + R{1,4} + R{1,5} + R{1,6}
   + R{1,7} + R{1,8} + R{1,9} <= 1
 R1_2: R{2,0} + R{2,1} + R{2,2} + R{2,3} + R{2,4} + R{2,5} + R{2,6}
   + R{2,7} + R{2,8} + R{2,9} + R{2,10} + R{2,11} + R{2,12} + R{2,13} <= 1
 R1_3: R{3,0} + R{3,1} + R{3,2} + R{3,3} + R{3,4} + R{3,5} + R{3,6}
   + R{3,7} + R{3,8} + R{3,9} + R{3,10} + R{3,11} + R{3,12} + R{3,13}
   + R{3,14} <= 1
 R1_4: R{4,0} + R{4,1} + R{4,2} + R{4,3} + R{4,4} + R{4,5} + R{4,6}
   + R{4,7} + R{4,8} + R{4,9} + R{4,10} + R{4,11} <= 1
 R1_5: R{5,0} + R{5,1} + R{5,2} + R{5,3} + R{5,4} + R{5,5} + R{5,6}
   + R{5,7} + R{5,8} <= 1
 R1_6: R{6,0} + R{6,1} + R{6,2} + R{6,3} + R{6,4} + R{6,5} + R{6,6}
   + R{6,7} + R{6,8} + R{6,9} + R{6,10} + R{6,11} + R{6,12} <= 1
 R2_0: <= 0
 R2_1: 10 R{3,1} + 10 R{3,2} + 10 R{3,3} + 10 R{3,4} + 10 R{3,6}
   + 10 R{3,7} + 10 R{3,10} + 10 R{3,14} + 10 R{5,5} + 10 R{6,7}
   + 10 R{6,12} <= 10
 R2_2: <= 0
 R2_3: 4 R{1,3} + 4 R{1,9} + 4 R{2,6} + 4 R{2,13} + 4 R{5,1} + 4 R{5,2}
   + 4 R{5,3} <= 4
 R2_4: <= 0
 R2_5: 5 R{5,1} + 5 R{5,2} + 5 R{5,3} + 5 R{5,4} + 5 R{5,5} <= 5
 R2_6: <= 10
 R2_7: <= 0
 R2_8: <= 0
 R2_9: 12 R{2,10} + 12 R{4,1} + 12 R{4,2} + 12 R{4,3} + 12 R{4,4}
   + 12 R{4,5} + 12 R{4,7} + 12 R{4,10} + 12 R{4,11} <= 12
 R2_10: 8 R{0,7} + 8 R{6,1} + 8 R{6,2} + 8 R{6,3} + 8 R{6,4} + 8 R{6,5}
   + 8 R{6,11} + 8 R{6,12} <= 8
 R2_11: <= 15
 R2_12: <= 0
 R2_13: <= 0
 R2_14: <= 0
 R2_15: 11 R{0,0} + 11 R{0,1} + 11 R{0,2} + 11 R{4,1} + 11 R{4,2} <= 11
 R2_16: 5 R{0,7} + 5 R{0,8} + 5 R{0,10} + 5 R{0,11} + 5 R{0,13} + 5 R{2,9}
   + 5 R{2,11} + 5 R{2,12} <= 5
 R2_17: 11 R{2,12} + 11 R{3,12} + 11 R{4,3} <= 11
 R2_18: 5 R{3,12} <= 5
 R2_19: 11 R{1,5} + 11 R{2,6} + 11 R{4,1} + 11 R{4,2} + 11 R{4,4}
   + 11 R{4,7} + 11 R{4,10} + 11 R{5,5} + 11 R{5,8} <= 11
 R2_20: 13 R{0,5} + 13 R{2,5} + 13 R{3,1} + 13 R{3,2} + 13 R{3,3}
   + 13 R{3,4} + 13 R{3,5} + 13 R{3,7} + 13 R{3,9} + 13 R{3,14}
   + 13 R{4,11} + 13 R{5,2} + 13 R{5,3} + 13 R{5,4} + 13 R{5,6} + 13 R{5,7}
   <= 13
 R2_21: <= 0
 R2_22: 10 R{2,12} + 10 R{3,12} + 10 R{4,6} + 10 R{4,8} + 10 R{4,9} <= 10
 R2_23: 14 R{0,1} + 14 R{0,2} + 14 R{0,10} + 14 R{0,13} + 14 R{2,0}
   + 14 R{2,1} + 14 R{2,7} + 14 R{2,8} + 14 R{2,10} + 14 R{4,3} + 14 R{4,6}
   + 14 R{4,8} + 14 R{4,9} + 14 R{6,2} + 14 R{6,3} + 14 R{6,12} <= 14
 R2_24: 10 R{1,5} + 10 R{1,6} + 10 R{3,1} + 10 R{3,2} + 10 R{3,3}
   + 10 R{3,5} + 10 R{3,6} + 10 R{3,8} + 10 R{3,9} + 10 R{3,10}
   + 10 R{3,13} + 10 R{3,14} + 10 R{5,6} + 10 R{5,7} + 10 R{6,5} <= 10
 R2_25: 13 R{3,11} + 13 R{3,13} + 13 R{4,1} + 13 R{4,2} + 13 R{4,4}
   + 13 R{4,5} + 13 R{4,7} + 13 R{4,10} + 13 R{4,11} + 13 R{6,5}
   + 13 R{6,10} + 13 R{6,11} <= 13
 R2_26: 6 R{1,1} + 6 R{1,2} + 6 R{1,3} + 6 R{1,5} + 6 R{1,6} + 6 R{1,7}
   + 6 R{1,8} + 6 R{1,9} + 6 R{4,11} <= 6
 R2_27: <= 5
 R2_28: <= 0
 R2_29: <= 0
 R2_30: <= 0
 R2_31: 6 R{3,12} + 6 R{6,1} + 6 R{6,2} + 6 R{6,7} + 6 R{6,12} <= 6
 R2_32: 7 R{0,4} + 7 R{0,5} + 7 R{1,4} + 7 R{1,8} + 7 R{4,5} + 7 R{4,11}
   + 7 R{6,8} + 7 R{6,9} <= 7
 R2_33: 12 R{3,7} + 12 R{3,9} + 12 R{3,14} <= 12
 R2_34: <= 5
 R2_35: <= 0
 R2_36: <= 0
 R2_37: 5 R{1,4} + 5 R{1,6} + 5 R{5,1} <= 5
 R2_38: <= 0
 R2_39: <= 0
 R2_40: 15 R{2,3} + 15 R{2,4} + 15 R{2,5} + 15 R{2,6} + 15 R{2,13}
   + 15 R{4,11} <= 15
 R2_41: 5 R{0,9} + 5 R{0,12} + 5 R{3,2} + 5 R{3,3} + 5 R{3,8} + 5 R{3,10}
   + 5 R{3,11} + 5 R{3,13} + 5 R{4,5} + 5 R{5,4} + 5 R{5,6} + 5 R{5,7}
   + 5 R{6,4} + 5 R{6,6} + 5 R{6,8} + 5 R{6,9} <= 5
 R2_42: 4 R{2,3} + 4 R{2,4} + 4 R{2,5} + 4 R{2,6} <= 4
 R2_43: <= 0
 R2_44: <= 0
 R2_45: <= 0
 R2_46: 9 R{0,6} + 9 R{0,9} + 9 R{4,4} + 9 R{4,5} + 9 R{4,6} + 9 R{4,11}
   <= 9
 R2_47: 7 R{1,1} + 7 R{1,2} <= 7
 R2_48: 4 R{2,11} + 4 R{4,1} + 4 R{4,2} + 4 R{4,3} + 4 R{4,4} + 4 R{4,5}
   + 4 R{4,7} + 4 R{4,10} + 4 R{4,11} <= 4
 R2_49: <= 0
 R2_50: <= 0
 R2_51: <= 0
 R2_52: 10 R{4,8} + 10 R{4,9} <= 10
 R2_53: 13 R{4,1} + 13 R{4,2} + 13 R{4,4} + 13 R{4,5} + 13 R{4,7}
   + 13 R{4,10} <= 13
 R2_54: 9 R{3,1} + 9 R{3,2} + 9 R{3,3} + 9 R{3,4} + 9 R{3,5} + 9 R{3,6}
   + 9 R{3,8} + 9 R{3,9} + 9 R{3,10} + 9 R{3,12} + 9 R{3,14} + 9 R{4,5}
   + 9 R{4,11} <= 9
 R2_55: <= 0
 R2_56: 6 R{0,12} + 6 R{2,0} + 6 R{2,1} + 6 R{4,6} + 6 R{4,8} + 6 R{6,2}
   + 6 R{6,3} + 6 R{6,4} + 6 R{6,6} + 6 R{6,7} + 6 R{6,9} + 6 R{6,12} <= 6
 R2_57: <= 0
 R2_58: 15 R{0,9} + 15 R{0,12} + 15 R{4,6} + 15 R{4,8} + 15 R{4,9} <= 15
 R2_59: 10 R{0,8} + 10 R{3,5} + 10 R{3,8} + 10 R{3,11} + 10 R{3,13}
   + 10 R{4,3} + 10 R{4,5} + 10 R{4,11} <= 10
 R2_60: <= 0
 R2_61: 9 R{0,8} + 9 R{0,10} + 9 R{2,7} + 9 R{2,8} + 9 R{2,9} + 9 R{2,11}
   + 9 R{2,12} + 9 R{3,12} + 9 R{6,7} + 9 R{6,11} <= 9
 R2_62: 10 R{6,10} <= 10
 R2_63: <= 0
 R2_64: <= 0
 R2_65: 5 R{2,0} + 5 R{2,1} + 5 R{2,7} + 5 R{2,9} + 5 R{2,10} + 5 R{2,12}
   + 5 R{3,12} + 5 R{4,3} + 5 R{4,11} + 5 R{6,1} + 5 R{6,2} + 5 R{6,3}
   + 5 R{6,7} + 5 R{6,8} + 5 R{6,12} <= 5
 R2_66: 7 R{1,8} + 7 R{3,10} + 7 R{3,11} <= 7
 R2_67: 3 R{0,1} + 3 R{0,2} + 3 R{0,6} + 3 R{0,7} + 3 R{2,0} + 3 R{2,1}
   + 3 R{2,8} + 3 R{2,9} + 3 R{6,8} <= 3
 R2_68: <= 6
 R2_69: 7 R{4,1} + 7 R{4,2} + 7 R{4,3} + 7 R{4,4} + 7 R{4,5} + 7 R{4,11}
   + 7 R{5,5} + 7 R{5,8} <= 7
 R2_70: 11 R{6,1} + 11 R{6,2} + 11 R{6,3} + 11 R{6,12} <= 11
 R2_71: 7 R{3,1} + 7 R{3,2} + 7 R{3,3} + 7 R{3,5} + 7 R{3,9} + 7 R{3,10}
   + 7 R{3,11} + 7 R{3,14} + 7 R{6,2} + 7 R{6,3} + 7 R{6,7} <= 7
 R2_72: <= 0
 R2_73: <= 0
 R2_74: 5 R{5,1} + 5 R{5,2} + 5 R{5,3} + 5 R{5,4} + 5 R{5,5} + 5 R{5,8}
   <= 5
 R2_75: 8 R{6,1} + 8 R{6,2} + 8 R{6,3} + 8 R{6,7} + 8 R{6,8} + 8 R{6,9}
   + 8 R{6,12} <= 8
 R2_76: 12 R{0,4} + 12 R{1,4} + 12 R{1,8} + 12 R{3,3} + 12 R{3,6}
   + 12 R{3,10} + 12 R{3,14} + 12 R{4,5} + 12 R{4,11} + 12 R{5,4}
   + 12 R{5,6} + 12 R{5,8} + 12 R{6,8} + 12 R{6,9} <= 12
 R2_77: 7 R{1,2} + 7 R{1,5} + 7 R{2,4} + 7 R{2,5} + 7 R{3,8} + 7 R{4,2}
   + 7 R{6,3} + 7 R{6,8} + 7 R{6,9} <= 7
Bounds
End
